
%FILE DATA:	Soccer Computational Problem for MiniZinc Models	%
%AUTHOR:	Jack Wall	%
%CONTACT:  	116397063@umail.ucc.ie			%
%LAST UPDATE:	03/16/2020, 13:59:12						%
%DESCRIPTION: 	154 games played with 28 games left				%


n=14; %number of teams

%Games to play
games=[|12,1|3,9|4,3|4,6|4,5|8,12|11,8|14,5|14,6|13,4|6,1|3,12|12,14|7,11|14,4|13,9|6,14|9,3|9,12|6,5|4,12|5,6|13,12|14,1|8,7|1,4|13,3|10,2|];

%Initial points
iPoints=[31,29,41,28,25,31,28,32,30,22,23,30,35,28];

%POSITION CONSTRAINTS
% [|teamID, operator, position|...]
% operators index:
%  1 for =  operator
%  2 for >  operator
%  3 for >= operator
%  4 for <  operator
%  5 for <= operator
positionConstraints=[|3,4,2|6,4,3|13,5,3|];